NAME : problems/40-tsp/instance-46.tsp
COMMENT : No Comment
TYPE : TSP
DIMENSION: 40
EDGE_WEIGHT_TYPE : EUC_2D
NODE_COORD_SECTION
1 3821 7052 
2 46 4549 
3 8701 7731 
4 1396 1917 
5 3732 7913 
6 1315 9245 
7 3881 7218 
8 3573 8972 
9 9052 7960 
10 3175 4911 
11 132 1512 
12 5553 7745 
13 936 4223 
14 485 3608 
15 4537 7213 
16 7785 4752 
17 4711 2454 
18 3373 9087 
19 7995 9664 
20 4622 284 
21 370 4183 
22 1119 6278 
23 7123 5362 
24 8557 3757 
25 699 5685 
26 3938 3093 
27 8507 537 
28 2706 5243 
29 8108 6790 
30 7478 3982 
31 3540 9757 
32 2556 1249 
33 8762 2532 
34 1260 8785 
35 362 3258 
36 7987 8670 
37 1109 4953 
38 4150 3789 
39 726 8811 
40 7155 6539 
EOF
